\ENCODING=ISO-8859-1
\Problem name: ilog.cplex

Maximize
 obj: 517 x(0)#0 + 1032 x(1)#1 + 592 x(2)#2 + 748 x(3)#3 + 1176 x(4)#4
      + 679 x(5)#5 + 792 x(6)#6 + 1150 x(7)#7 + 617 x(8)#8 + 961 x(9)#9
      + 678 x(10)#10 + 753 x(11)#11 + 550 x(12)#12 + 732 x(13)#13
      + 645 x(14)#14 + 701 x(15)#15 + 825 x(16)#16 + 821 x(17)#17
      + 717 x(18)#18 + 959 x(19)#19 + 928 x(20)#20 + 838 x(21)#21
      + 544 x(22)#22 + 841 x(23)#23 + 397 x(24)#24 + 903 x(25)#25
      + 535 x(26)#26 + 1026 x(27)#27 + 820 x(28)#28 + 1091 x(29)#29
      + 483 x(30)#30 + 872 x(31)#31 + 524 x(32)#32 + 1028 x(33)#33
      + 913 x(34)#34 + 670 x(35)#35 + 907 x(36)#36 + 844 x(37)#37
      + 533 x(38)#38 + 1009 x(39)#39 + 1115 x(40)#40 + 1070 x(41)#41
      + 1044 x(42)#42 + 1054 x(43)#43 + 1087 x(44)#44 + 783 x(45)#45
      + 761 x(46)#46 + 725 x(47)#47 + 1103 x(48)#48 + 658 x(49)#49
      + 789 x(50)#50 + 892 x(51)#51 + 1105 x(52)#52 + 1022 x(53)#53
      + 684 x(54)#54 + 539 x(55)#55 + 1011 x(56)#56 + 791 x(57)#57
      + 365 x(58)#58 + 1088 x(59)#59 + 1016 x(60)#60 + 590 x(61)#61
      + 181 x(62)#62 + 587 x(63)#63 + 1056 x(64)#64 + 1082 x(65)#65
      + 575 x(66)#66 + 1006 x(67)#67 + 769 x(68)#68 + 506 x(69)#69
      + 581 x(70)#70 + 877 x(71)#71 + 699 x(72)#72 + 811 x(73)#73
      + 812 x(74)#74 + 616 x(75)#75 + 469 x(76)#76 + 946 x(77)#77
      + 1035 x(78)#78 + 888 x(79)#79 + 774 x(80)#80 + 669 x(81)#81
      + 545 x(82)#82 + 924 x(83)#83 + 1061 x(84)#84 + 519 x(85)#85
      + 857 x(86)#86 + 832 x(87)#87 + 795 x(88)#88 + 669 x(89)#89
      + 1186 x(90)#90 + 816 x(91)#91 + 664 x(92)#92 + 856 x(93)#93
      + 1094 x(94)#94 + 564 x(95)#95 + 673 x(96)#96 + 607 x(97)#97
      + 851 x(98)#98 + 754 x(99)#99 + 1092 x(100)#100 + 811 x(101)#101
      + 621 x(102)#102 + 698 x(103)#103 + 791 x(104)#104 + 764 x(105)#105
      + 461 x(106)#106 + 969 x(107)#107 + 574 x(108)#108 + 365 x(109)#109
      + 613 x(110)#110 + 542 x(111)#111 + 587 x(112)#112 + 566 x(113)#113
      + 476 x(114)#114 + 950 x(115)#115 + 1024 x(116)#116 + 653 x(117)#117
      + 664 x(118)#118 + 668 x(119)#119 + 757 x(120)#120 + 725 x(121)#121
      + 885 x(122)#122 + 1004 x(123)#123 + 640 x(124)#124 + 1008 x(125)#125
      + 971 x(126)#126 + 706 x(127)#127 + 835 x(128)#128 + 1229 x(129)#129
      + 794 x(130)#130 + 836 x(131)#131 + 790 x(132)#132 + 1025 x(133)#133
      + 324 x(134)#134 + 1214 x(135)#135 + 490 x(136)#136 + 737 x(137)#137
      + 521 x(138)#138 + 602 x(139)#139 + 723 x(140)#140 + 979 x(141)#141
      + 936 x(142)#142 + 742 x(143)#143 + 645 x(144)#144 + 925 x(145)#145
      + 707 x(146)#146 + 512 x(147)#147 + 825 x(148)#148 + 963 x(149)#149
      + 665 x(150)#150 + 1127 x(151)#151 + 622 x(152)#152 + 604 x(153)#153
      + 964 x(154)#154 + 1267 x(155)#155 + 836 x(156)#156 + 781 x(157)#157
      + 587 x(158)#158 + 891 x(159)#159 + 946 x(160)#160 + 665 x(161)#161
      + 1008 x(162)#162 + 681 x(163)#163 + 977 x(164)#164 + 830 x(165)#165
      + 981 x(166)#166 + 395 x(167)#167 + 366 x(168)#168 + 509 x(169)#169
      + 490 x(170)#170 + 550 x(171)#171 + 949 x(172)#172 + 793 x(173)#173
      + 777 x(174)#174 + 681 x(175)#175 + 493 x(176)#176 + 527 x(177)#177
      + 1047 x(178)#178 + 1013 x(179)#179 + 457 x(180)#180 + 410 x(181)#181
      + 675 x(182)#182 + 1122 x(183)#183 + 640 x(184)#184 + 820 x(185)#185
      + 648 x(186)#186 + 833 x(187)#187 + 1085 x(188)#188 + 821 x(189)#189
      + 449 x(190)#190 + 795 x(191)#191 + 762 x(192)#192 + 529 x(193)#193
      + 968 x(194)#194 + 654 x(195)#195 + 359 x(196)#196 + 705 x(197)#197
      + 566 x(198)#198 + 784 x(199)#199 + 90 x(200)#200 + 427 x(201)#201
      + 289 x(202)#202 + 957 x(203)#203 + 908 x(204)#204 + 466 x(205)#205
      + 605 x(206)#206 + 444 x(207)#207 + 829 x(208)#208 + 745 x(209)#209
      + 745 x(210)#210 + 291 x(211)#211 + 474 x(212)#212 + 693 x(213)#213
      + 1021 x(214)#214 + 716 x(215)#215 + 762 x(216)#216 + 939 x(217)#217
      + 797 x(218)#218 + 1069 x(219)#219 + 544 x(220)#220 + 817 x(221)#221
      + 895 x(222)#222 + 375 x(223)#223 + 627 x(224)#224 + 372 x(225)#225
      + 736 x(226)#226 + 540 x(227)#227 + 736 x(228)#228 + 627 x(229)#229
      + 612 x(230)#230 + 405 x(231)#231 + 801 x(232)#232 + 1065 x(233)#233
      + 865 x(234)#234 + 802 x(235)#235 + 793 x(236)#236 + 582 x(237)#237
      + 516 x(238)#238 + 579 x(239)#239 + 675 x(240)#240 + 702 x(241)#241
      + 713 x(242)#242 + 795 x(243)#243 + 695 x(244)#244 + 450 x(245)#245
      + 564 x(246)#246 + 502 x(247)#247 + 704 x(248)#248 + 993 x(249)#249
Subject To
 c1: 986 x(0)#0 + 657 x(1)#1 + 583 x(2)#2 + 976 x(3)#3 + 728 x(4)#4
     + 428 x(5)#5 + 133 x(6)#6 + 843 x(7)#7 + 299 x(8)#8 + 684 x(9)#9
     + 564 x(10)#10 + 780 x(11)#11 + 484 x(12)#12 + 690 x(13)#13 + 771 x(14)#14
     + 559 x(15)#15 + 952 x(16)#16 + 334 x(17)#17 + 931 x(18)#18 + 158 x(19)#19
     + 422 x(20)#20 + 643 x(21)#21 + 747 x(22)#22 + 826 x(23)#23 + 979 x(24)#24
     + 655 x(25)#25 + 85 x(26)#26 + 359 x(27)#27 + 72 x(28)#28 + 76 x(29)#29
     + 186 x(30)#30 + 826 x(31)#31 + 192 x(32)#32 + 848 x(33)#33 + 862 x(34)#34
     + 11 x(35)#35 + 836 x(36)#36 + 148 x(37)#37 + 340 x(38)#38 + 163 x(39)#39
     + 371 x(40)#40 + 486 x(41)#41 + 856 x(42)#42 + 957 x(43)#43 + 402 x(44)#44
     + 791 x(45)#45 + 190 x(46)#46 + 28 x(47)#47 + 583 x(48)#48 + 636 x(49)#49
     + 789 x(50)#50 + 360 x(51)#51 + 901 x(52)#52 + 781 x(53)#53 + 202 x(54)#54
     + 807 x(55)#55 + 254 x(56)#56 + 40 x(57)#57 + 23 x(58)#58 + 813 x(59)#59
     + 733 x(60)#60 + 642 x(61)#61 + 208 x(62)#62 + 363 x(63)#63 + 534 x(64)#64
     + 578 x(65)#65 + 201 x(66)#66 + 793 x(67)#67 + 692 x(68)#68 + 526 x(69)#69
     + 658 x(70)#70 + 684 x(71)#71 + 169 x(72)#72 + 803 x(73)#73 + 493 x(74)#74
     + 806 x(75)#75 + 66 x(76)#76 + 693 x(77)#77 + 845 x(78)#78 + 808 x(79)#79
     + 282 x(80)#80 + 362 x(81)#81 + 958 x(82)#82 + 343 x(83)#83 + 715 x(84)#84
     + 271 x(85)#85 + 509 x(86)#86 + 905 x(87)#87 + 612 x(88)#88 + 950 x(89)#89
     + 686 x(90)#90 + 751 x(91)#91 + 62 x(92)#92 + 935 x(93)#93 + 327 x(94)#94
     + 88 x(95)#95 + 245 x(96)#96 + 314 x(97)#97 + 344 x(98)#98 + 617 x(99)#99
     + 894 x(100)#100 + 549 x(101)#101 + 94 x(102)#102 + 598 x(103)#103
     + 421 x(104)#104 + 394 x(105)#105 + 820 x(106)#106 + 447 x(107)#107
     + 859 x(108)#108 + 421 x(109)#109 + 793 x(110)#110 + 587 x(111)#111
     + 10 x(112)#112 + 449 x(113)#113 + 816 x(114)#114 + 701 x(115)#115
     + 232 x(116)#116 + 680 x(117)#117 + 578 x(118)#118 + 649 x(119)#119
     + 661 x(120)#120 + 308 x(121)#121 + 667 x(122)#122 + 973 x(123)#123
     + 597 x(124)#124 + 944 x(125)#125 + 118 x(126)#126 + 943 x(127)#127
     + 83 x(128)#128 + 998 x(129)#129 + 66 x(130)#130 + 835 x(131)#131
     + 652 x(132)#132 + 903 x(133)#133 + 234 x(134)#134 + 769 x(135)#135
     + 311 x(136)#136 + 339 x(137)#137 + 373 x(138)#138 + 128 x(139)#139
     + 934 x(140)#140 + 399 x(141)#141 + 434 x(142)#142 + 260 x(143)#143
     + 717 x(144)#144 + 384 x(145)#145 + 537 x(146)#146 + 81 x(147)#147
     + 197 x(148)#148 + 48 x(149)#149 + 201 x(150)#150 + 773 x(151)#151
     + 391 x(152)#152 + 48 x(153)#153 + 749 x(154)#154 + 870 x(155)#155
     + 641 x(156)#156 + 527 x(157)#157 + 342 x(158)#158 + 545 x(159)#159
     + 426 x(160)#160 + 126 x(161)#161 + 943 x(162)#162 + 926 x(163)#163
     + 941 x(164)#164 + 908 x(165)#165 + 539 x(166)#166 + 340 x(167)#167
     + 176 x(168)#168 + 504 x(169)#169 + 487 x(170)#170 + 688 x(171)#171
     + 49 x(172)#172 + 217 x(173)#173 + 815 x(174)#174 + 5 x(175)#175
     + 45 x(176)#176 + 207 x(177)#177 + 793 x(178)#178 + 490 x(179)#179
     + 888 x(180)#180 + 976 x(181)#181 + 283 x(182)#182 + 758 x(183)#183
     + 20 x(184)#184 + 194 x(185)#185 + 518 x(186)#186 + 732 x(187)#187
     + 874 x(188)#188 + 476 x(189)#189 + 103 x(190)#190 + 559 x(191)#191
     + 177 x(192)#192 + 746 x(193)#193 + 977 x(194)#194 + 428 x(195)#195
     + 113 x(196)#196 + 52 x(197)#197 + 660 x(198)#198 + 361 x(199)#199
     + 110 x(200)#200 + 766 x(201)#201 + 227 x(202)#202 + 793 x(203)#203
     + 502 x(204)#204 + 102 x(205)#205 + 97 x(206)#206 + 669 x(207)#207
     + 553 x(208)#208 + 207 x(209)#209 + 754 x(210)#210 + 66 x(211)#211
     + 427 x(212)#212 + 839 x(213)#213 + 912 x(214)#214 + 60 x(215)#215
     + 219 x(216)#216 + 787 x(217)#217 + 52 x(218)#218 + 902 x(219)#219
     + 744 x(220)#220 + 518 x(221)#221 + 384 x(222)#222 + 319 x(223)#223
     + 88 x(224)#224 + 459 x(225)#225 + 502 x(226)#226 + 307 x(227)#227
     + 824 x(228)#228 + 224 x(229)#229 + 819 x(230)#230 + 159 x(231)#231
     + 595 x(232)#232 + 559 x(233)#233 + 689 x(234)#234 + 2 x(235)#235
     + 428 x(236)#236 + 747 x(237)#237 + 392 x(238)#238 + 843 x(239)#239
     + 561 x(240)#240 + 991 x(241)#241 + 82 x(242)#242 + 767 x(243)#243
     + 5 x(244)#244 + 342 x(245)#245 + 520 x(246)#246 + 111 x(247)#247
     + 348 x(248)#248 + 650 x(249)#249 <= 31793
 c2: 695 x(0)#0 + 852 x(1)#1 + 75 x(2)#2 + 13 x(3)#3 + 818 x(4)#4 + 138 x(5)#5
     + 439 x(6)#6 + 345 x(7)#7 + 47 x(8)#8 + 284 x(9)#9 + 267 x(10)#10
     + 16 x(11)#11 + 425 x(12)#12 + 37 x(13)#13 + 102 x(14)#14 + 866 x(15)#15
     + 465 x(16)#16 + 698 x(17)#17 + 803 x(18)#18 + 714 x(19)#19 + 851 x(20)#20
     + 329 x(21)#21 + 238 x(22)#22 + 952 x(23)#23 + 473 x(24)#24 + 682 x(25)#25
     + 118 x(26)#26 + 660 x(27)#27 + 650 x(28)#28 + 319 x(29)#29 + 455 x(30)#30
     + 391 x(31)#31 + 289 x(32)#32 + 645 x(33)#33 + 228 x(34)#34 + 490 x(35)#35
     + 685 x(36)#36 + 608 x(37)#37 + 431 x(38)#38 + 571 x(39)#39 + 707 x(40)#40
     + 280 x(41)#41 + 241 x(42)#42 + 651 x(43)#43 + 462 x(44)#44 + 277 x(45)#45
     + 792 x(46)#46 + 688 x(47)#47 + 642 x(48)#48 + 627 x(49)#49 + 371 x(50)#50
     + 499 x(51)#51 + 811 x(52)#52 + 437 x(53)#53 + 46 x(54)#54 + 497 x(55)#55
     + 657 x(56)#56 + 724 x(57)#57 + 102 x(58)#58 + 834 x(59)#59 + 799 x(60)#60
     + 300 x(61)#61 + 44 x(62)#62 + 171 x(63)#63 + 936 x(64)#64 + 475 x(65)#65
     + 866 x(66)#66 + 180 x(67)#67 + 609 x(68)#68 + 225 x(69)#69 + 183 x(70)#70
     + 857 x(71)#71 + 308 x(72)#72 + 733 x(73)#73 + 849 x(74)#74 + 289 x(75)#75
     + 97 x(76)#76 + 597 x(77)#77 + 975 x(78)#78 + 576 x(79)#79 + 341 x(80)#80
     + 123 x(81)#81 + 252 x(82)#82 + 765 x(83)#83 + 256 x(84)#84 + 689 x(85)#85
     + 67 x(86)#86 + 123 x(87)#87 + 784 x(88)#88 + 163 x(89)#89 + 830 x(90)#90
     + 607 x(91)#91 + 39 x(92)#92 + 182 x(93)#93 + 772 x(94)#94 + 934 x(95)#95
     + 772 x(96)#96 + 820 x(97)#97 + 261 x(98)#98 + 644 x(99)#99
     + 629 x(100)#100 + 533 x(101)#101 + 38 x(102)#102 + 172 x(103)#103
     + 400 x(104)#104 + 980 x(105)#105 + 38 x(106)#106 + 723 x(107)#107
     + 611 x(108)#108 + 231 x(109)#109 + 725 x(110)#110 + 635 x(111)#111
     + 177 x(112)#112 + 652 x(113)#113 + 103 x(114)#114 + 576 x(115)#115
     + 514 x(116)#116 + 579 x(117)#117 + 372 x(118)#118 + 805 x(119)#119
     + 110 x(120)#120 + 632 x(121)#121 + 780 x(122)#122 + 124 x(123)#123
     + 89 x(124)#124 + 533 x(125)#125 + 821 x(126)#126 + 407 x(127)#127
     + 895 x(128)#128 + 826 x(129)#129 + 989 x(130)#130 + 217 x(131)#131
     + 898 x(132)#132 + 979 x(133)#133 + 30 x(134)#134 + 803 x(135)#135
     + 103 x(136)#136 + 717 x(137)#137 + 53 x(138)#138 + 680 x(139)#139
     + 396 x(140)#140 + 617 x(141)#141 + 265 x(142)#142 + 216 x(143)#143
     + 32 x(144)#144 + 500 x(145)#145 + 419 x(146)#146 + 165 x(147)#147
     + 792 x(148)#148 + 580 x(149)#149 + 721 x(150)#150 + 607 x(151)#151
     + 85 x(152)#152 + 123 x(153)#153 + 970 x(154)#154 + 928 x(155)#155
     + 551 x(156)#156 + 433 x(157)#157 + 761 x(158)#158 + 638 x(159)#159
     + 431 x(160)#160 + 459 x(161)#161 + 699 x(162)#162 + 796 x(163)#163
     + 215 x(164)#164 + 61 x(165)#165 + 879 x(166)#166 + 287 x(167)#167
     + 266 x(168)#168 + 464 x(169)#169 + 215 x(170)#170 + 825 x(171)#171
     + 260 x(172)#172 + 940 x(173)#173 + 275 x(174)#174 + 528 x(175)#175
     + 280 x(176)#176 + 548 x(177)#177 + 1000 x(178)#178 + 931 x(179)#179
     + 251 x(180)#180 + 141 x(181)#181 + 794 x(182)#182 + 610 x(183)#183
     + 955 x(184)#184 + 452 x(185)#185 + 791 x(186)#186 + 499 x(187)#187
     + 670 x(188)#188 + 402 x(189)#189 + 847 x(190)#190 + 924 x(191)#191
     + 773 x(192)#192 + 48 x(193)#193 + 341 x(194)#194 + 516 x(195)#195
     + 29 x(196)#196 + 946 x(197)#197 + 759 x(198)#198 + 15 x(199)#199
     + x(200)#200 + 333 x(201)#201 + 149 x(202)#202 + 685 x(203)#203
     + 890 x(204)#204 + 360 x(205)#205 + 123 x(206)#206 + 490 x(207)#207
     + 561 x(208)#208 + 573 x(209)#209 + 718 x(210)#210 + 211 x(211)#211
     + 90 x(212)#212 + 684 x(213)#213 + 728 x(214)#214 + 445 x(215)#215
     + 929 x(216)#216 + 795 x(217)#217 + 635 x(218)#218 + 486 x(219)#219
     + 809 x(220)#220 + 471 x(221)#221 + 96 x(222)#222 + 112 x(223)#223
     + 576 x(224)#224 + 281 x(225)#225 + 477 x(226)#226 + 377 x(227)#227
     + 596 x(228)#228 + 314 x(229)#229 + 536 x(230)#230 + 92 x(231)#231
     + 148 x(232)#232 + 332 x(233)#233 + 86 x(234)#234 + 724 x(235)#235
     + 87 x(236)#236 + 478 x(237)#237 + 401 x(238)#238 + 110 x(239)#239
     + 781 x(240)#240 + 173 x(241)#241 + 517 x(242)#242 + 204 x(243)#243
     + 694 x(244)#244 + 378 x(245)#245 + 650 x(246)#246 + 761 x(247)#247
     + 14 x(248)#248 + 688 x(249)#249 <= 30238
 c3: 271 x(0)#0 + 168 x(1)#1 + 974 x(2)#2 + 114 x(3)#3 + 138 x(4)#4
     + 603 x(5)#5 + 225 x(6)#6 + 902 x(7)#7 + 202 x(8)#8 + 84 x(9)#9
     + 660 x(10)#10 + 284 x(11)#11 + 528 x(12)#12 + 477 x(13)#13 + 346 x(14)#14
     + 525 x(15)#15 + 794 x(16)#16 + 343 x(17)#17 + 298 x(18)#18 + 940 x(19)#19
     + 854 x(20)#20 + 413 x(21)#21 + 338 x(22)#22 + 541 x(23)#23 + 182 x(24)#24
     + 815 x(25)#25 + 327 x(26)#26 + 599 x(27)#27 + 71 x(28)#28 + 757 x(29)#29
     + 716 x(30)#30 + 795 x(31)#31 + x(32)#32 + 530 x(33)#33 + 286 x(34)#34
     + 313 x(35)#35 + 599 x(36)#36 + 812 x(37)#37 + 136 x(38)#38 + 320 x(39)#39
     + 684 x(40)#40 + 972 x(41)#41 + 772 x(42)#42 + 258 x(43)#43 + 977 x(44)#44
     + 146 x(45)#45 + 732 x(46)#46 + 872 x(47)#47 + 881 x(48)#48 + 574 x(49)#49
     + 852 x(50)#50 + 531 x(51)#51 + 449 x(52)#52 + 510 x(53)#53 + 896 x(54)#54
     + 997 x(55)#55 + 799 x(56)#56 + 347 x(57)#57 + 133 x(58)#58 + 699 x(59)#59
     + 961 x(60)#60 + 186 x(61)#61 + 32 x(62)#62 + 300 x(63)#63 + 971 x(64)#64
     + 419 x(65)#65 + 48 x(66)#66 + 262 x(67)#67 + 790 x(68)#68 + 707 x(69)#69
     + 989 x(70)#70 + 997 x(71)#71 + 699 x(72)#72 + 546 x(73)#73 + 133 x(74)#74
     + 538 x(75)#75 + 347 x(76)#76 + 324 x(77)#77 + 170 x(78)#78 + 389 x(79)#79
     + 259 x(80)#80 + 384 x(81)#81 + 189 x(82)#82 + 850 x(83)#83 + 609 x(84)#84
     + 226 x(85)#85 + 617 x(86)#86 + 917 x(87)#87 + 762 x(88)#88 + 504 x(89)#89
     + 367 x(90)#90 + 6 x(91)#91 + 512 x(92)#92 + 815 x(93)#93 + 997 x(94)#94
     + 586 x(95)#95 + 628 x(96)#96 + 155 x(97)#97 + 374 x(98)#98 + 359 x(99)#99
     + 479 x(100)#100 + 577 x(101)#101 + 191 x(102)#102 + 294 x(103)#103
     + 792 x(104)#104 + 13 x(105)#105 + 591 x(106)#106 + 245 x(107)#107
     + 20 x(108)#108 + 90 x(109)#109 + 324 x(110)#110 + 219 x(111)#111
     + 681 x(112)#112 + 141 x(113)#113 + 933 x(114)#114 + 403 x(115)#115
     + 913 x(116)#116 + 472 x(117)#117 + 459 x(118)#118 + 341 x(119)#119
     + 302 x(120)#120 + 695 x(121)#121 + 470 x(122)#122 + 592 x(123)#123
     + 834 x(124)#124 + 964 x(125)#125 + 137 x(126)#126 + 327 x(127)#127
     + 260 x(128)#128 + 691 x(129)#129 + 557 x(130)#130 + 286 x(131)#131
     + 354 x(132)#132 + 421 x(133)#133 + 183 x(134)#134 + 858 x(135)#135
     + 345 x(136)#136 + 678 x(137)#137 + 873 x(138)#138 + 636 x(139)#139
     + 373 x(140)#140 + 5 x(141)#141 + 353 x(142)#142 + 868 x(143)#143
     + 970 x(144)#144 + 382 x(145)#145 + 283 x(146)#146 + 973 x(147)#147
     + 926 x(148)#148 + 945 x(149)#149 + 575 x(150)#150 + 365 x(151)#151
     + 724 x(152)#152 + 960 x(153)#153 + 458 x(154)#154 + 969 x(155)#155
     + 497 x(156)#156 + 738 x(157)#157 + 709 x(158)#158 + 322 x(159)#159
     + 460 x(160)#160 + 379 x(161)#161 + 776 x(162)#162 + 161 x(163)#163
     + 559 x(164)#164 + 864 x(165)#165 + 669 x(166)#166 + 3 x(167)#167
     + 584 x(168)#168 + 316 x(169)#169 + 588 x(170)#170 + 13 x(171)#171
     + 399 x(172)#172 + 484 x(173)#173 + 914 x(174)#174 + 663 x(175)#175
     + 485 x(176)#176 + 578 x(177)#177 + 624 x(178)#178 + 784 x(179)#179
     + 137 x(180)#180 + 124 x(181)#181 + 684 x(182)#182 + 445 x(183)#183
     + 402 x(184)#184 + 505 x(185)#185 + 994 x(186)#186 + 928 x(187)#187
     + 524 x(188)#188 + 793 x(189)#189 + 769 x(190)#190 + 194 x(191)#191
     + 890 x(192)#192 + 274 x(193)#193 + 85 x(194)#194 + 313 x(195)#195
     + 927 x(196)#196 + 778 x(197)#197 + 312 x(198)#198 + 96 x(199)#199
     + 36 x(200)#200 + 103 x(201)#201 + 224 x(202)#202 + 353 x(203)#203
     + 617 x(204)#204 + 656 x(205)#205 + 926 x(206)#206 + 291 x(207)#207
     + 197 x(208)#208 + 834 x(209)#209 + 915 x(210)#210 + 36 x(211)#211
     + 491 x(212)#212 + 273 x(213)#213 + 467 x(214)#214 + 164 x(215)#215
     + 18 x(216)#216 + 709 x(217)#217 + 159 x(218)#218 + 703 x(219)#219
     + 91 x(220)#220 + 568 x(221)#221 + 868 x(222)#222 + 465 x(223)#223
     + 56 x(224)#224 + 64 x(225)#225 + 885 x(226)#226 + 350 x(227)#227
     + 513 x(228)#228 + 49 x(229)#229 + 345 x(230)#230 + 633 x(231)#231
     + 302 x(232)#232 + 848 x(233)#233 + 380 x(234)#234 + 912 x(235)#235
     + 699 x(236)#236 + 504 x(237)#237 + 806 x(238)#238 + 570 x(239)#239
     + 375 x(240)#240 + 653 x(241)#241 + 302 x(242)#242 + 440 x(243)#243
     + 851 x(244)#244 + 209 x(245)#245 + 172 x(246)#246 + 164 x(247)#247
     + 91 x(248)#248 + 113 x(249)#249 <= 31062
 c4: 377 x(0)#0 + 269 x(1)#1 + 366 x(2)#2 + 519 x(3)#3 + 823 x(4)#4
     + 709 x(5)#5 + 997 x(6)#6 + 606 x(7)#7 + 528 x(8)#8 + 784 x(9)#9
     + 293 x(10)#10 + 655 x(11)#11 + 496 x(12)#12 + 469 x(13)#13 + 52 x(14)#14
     + 63 x(15)#15 + 841 x(16)#16 + 618 x(17)#17 + 5 x(18)#18 + 492 x(19)#19
     + 2 x(20)#20 + 370 x(21)#21 + 596 x(22)#22 + 779 x(23)#23 + 39 x(24)#24
     + 918 x(25)#25 + 73 x(26)#26 + 763 x(27)#27 + 471 x(28)#28 + 980 x(29)#29
     + 677 x(30)#30 + 663 x(31)#31 + 719 x(32)#32 + 41 x(33)#33 + 205 x(34)#34
     + 191 x(35)#35 + 410 x(36)#36 + 863 x(37)#37 + 361 x(38)#38 + 923 x(39)#39
     + 941 x(40)#40 + 943 x(41)#41 + 931 x(42)#42 + 820 x(43)#43 + 452 x(44)#44
     + 518 x(45)#45 + 264 x(46)#46 + 658 x(47)#47 + 735 x(48)#48 + 911 x(49)#49
     + 120 x(50)#50 + 941 x(51)#51 + 690 x(52)#52 + 460 x(53)#53 + 45 x(54)#54
     + 285 x(55)#55 + 494 x(56)#56 + 364 x(57)#57 + 397 x(58)#58 + 856 x(59)#59
     + 371 x(60)#60 + 203 x(61)#61 + 208 x(62)#62 + 239 x(63)#63 + 906 x(64)#64
     + 949 x(65)#65 + 385 x(66)#66 + 839 x(67)#67 + 740 x(68)#68 + 760 x(69)#69
     + 564 x(70)#70 + 976 x(71)#71 + 701 x(72)#72 + 291 x(73)#73 + 315 x(74)#74
     + 87 x(75)#75 + 702 x(76)#76 + 586 x(77)#77 + 521 x(78)#78 + 948 x(79)#79
     + 69 x(80)#80 + 207 x(81)#81 + 779 x(82)#82 + 883 x(83)#83 + 845 x(84)#84
     + 433 x(85)#85 + 209 x(86)#86 + 946 x(87)#87 + 221 x(88)#88 + 116 x(89)#89
     + 824 x(90)#90 + 119 x(91)#91 + 609 x(92)#92 + 323 x(93)#93 + 884 x(94)#94
     + 352 x(95)#95 + 234 x(96)#96 + 895 x(97)#97 + 905 x(98)#98 + 343 x(99)#99
     + 886 x(100)#100 + 286 x(101)#101 + 167 x(102)#102 + 588 x(103)#103
     + 32 x(104)#104 + 108 x(105)#105 + 254 x(106)#106 + 784 x(107)#107
     + 766 x(108)#108 + 75 x(109)#109 + 175 x(110)#110 + 178 x(111)#111
     + 268 x(112)#112 + 898 x(113)#113 + 245 x(114)#114 + 204 x(115)#115
     + 404 x(116)#116 + 239 x(117)#117 + 880 x(118)#118 + 707 x(119)#119
     + 114 x(120)#120 + 556 x(121)#121 + 273 x(122)#122 + 809 x(123)#123
     + 648 x(124)#124 + 418 x(125)#125 + 746 x(126)#126 + 218 x(127)#127
     + 719 x(128)#128 + 760 x(129)#129 + 684 x(130)#130 + 64 x(131)#131
     + 416 x(132)#132 + 690 x(133)#133 + 728 x(134)#134 + 823 x(135)#135
     + 269 x(136)#136 + 810 x(137)#137 + 11 x(138)#138 + 256 x(139)#139
     + 355 x(140)#140 + 975 x(141)#141 + 954 x(142)#142 + 766 x(143)#143
     + 100 x(144)#144 + 816 x(145)#145 + 865 x(146)#146 + 43 x(147)#147
     + 102 x(148)#148 + 191 x(149)#149 + 922 x(150)#150 + 911 x(151)#151
     + 950 x(152)#152 + 509 x(153)#153 + 583 x(154)#154 + 893 x(155)#155
     + 522 x(156)#156 + 393 x(157)#157 + 673 x(158)#158 + 454 x(159)#159
     + 184 x(160)#160 + 865 x(161)#161 + 869 x(162)#162 + 682 x(163)#163
     + 929 x(164)#164 + 580 x(165)#165 + 185 x(166)#166 + 74 x(167)#167
     + 165 x(168)#168 + 861 x(169)#169 + 306 x(170)#170 + 399 x(171)#171
     + 982 x(172)#172 + 640 x(173)#173 + 354 x(174)#174 + 760 x(175)#175
     + 981 x(176)#176 + 305 x(177)#177 + 44 x(178)#178 + 853 x(179)#179
     + 405 x(180)#180 + 425 x(181)#181 + 808 x(182)#182 + 839 x(183)#183
     + 152 x(184)#184 + 240 x(185)#185 + 52 x(186)#186 + 196 x(187)#187
     + 452 x(188)#188 + 281 x(189)#189 + 313 x(190)#190 + 75 x(191)#191
     + 102 x(192)#192 + 808 x(193)#193 + 521 x(194)#194 + 660 x(195)#195
     + 59 x(196)#196 + 156 x(197)#197 + 241 x(198)#198 + 437 x(199)#199
     + 48 x(200)#200 + 397 x(201)#201 + 11 x(202)#202 + 659 x(203)#203
     + 655 x(204)#204 + 12 x(205)#205 + 480 x(206)#206 + 143 x(207)#207
     + 974 x(208)#208 + 453 x(209)#209 + 39 x(210)#210 + 108 x(211)#211
     + 38 x(212)#212 + 205 x(213)#213 + 544 x(214)#214 + 402 x(215)#215
     + 25 x(216)#216 + 59 x(217)#217 + 968 x(218)#218 + 21 x(219)#219
     + 233 x(220)#220 + 936 x(221)#221 + 458 x(222)#222 + 498 x(223)#223
     + 128 x(224)#224 + 398 x(225)#225 + 161 x(226)#226 + 246 x(227)#227
     + 627 x(228)#228 + 978 x(229)#229 + 208 x(230)#230 + 711 x(231)#231
     + 198 x(232)#232 + 601 x(233)#233 + 526 x(234)#234 + 271 x(235)#235
     + 646 x(236)#236 + 396 x(237)#237 + 507 x(238)#238 + 67 x(239)#239
     + 24 x(240)#240 + 19 x(241)#241 + 99 x(242)#242 + 64 x(243)#243
     + 996 x(244)#244 + 155 x(245)#245 + 212 x(246)#246 + 449 x(247)#247
     + 753 x(248)#248 + 719 x(249)#249 <= 30054
 c5: 233 x(0)#0 + 760 x(1)#1 + 383 x(2)#2 + 879 x(3)#3 + 900 x(4)#4
     + 610 x(5)#5 + 496 x(6)#6 + 883 x(7)#7 + 998 x(8)#8 + 705 x(9)#9
     + 260 x(10)#10 + 198 x(11)#11 + 471 x(12)#12 + 24 x(13)#13 + 470 x(14)#14
     + 563 x(15)#15 + 332 x(16)#16 + 480 x(17)#17 + 490 x(18)#18 + 688 x(19)#19
     + 915 x(20)#20 + 853 x(21)#21 + 418 x(22)#22 + 45 x(23)#23 + 159 x(24)#24
     + 296 x(25)#25 + 533 x(26)#26 + 955 x(27)#27 + 963 x(28)#28 + 995 x(29)#29
     + 167 x(30)#30 + 412 x(31)#31 + 281 x(32)#32 + 822 x(33)#33 + 919 x(34)#34
     + 382 x(35)#35 + 808 x(36)#36 + 164 x(37)#37 + 83 x(38)#38 + 791 x(39)#39
     + 695 x(40)#40 + 388 x(41)#41 + 612 x(42)#42 + 328 x(43)#43 + 948 x(44)#44
     + 744 x(45)#45 + 369 x(46)#46 + 113 x(47)#47 + 971 x(48)#48 + 88 x(49)#49
     + 220 x(50)#50 + 144 x(51)#51 + 720 x(52)#52 + 453 x(53)#53 + 862 x(54)#54
     + 9 x(55)#55 + 379 x(56)#56 + 628 x(57)#57 + 635 x(58)#58 + 949 x(59)#59
     + 21 x(60)#60 + 688 x(61)#61 + 213 x(62)#62 + 146 x(63)#63 + 158 x(64)#64
     + 630 x(65)#65 + 889 x(66)#66 + 685 x(67)#67 + 885 x(68)#68 + 79 x(69)#69
     + 420 x(70)#70 + 858 x(71)#71 + 604 x(72)#72 + 128 x(73)#73 + 532 x(74)#74
     + 8 x(75)#75 + 169 x(76)#76 + 873 x(77)#77 + 814 x(78)#78 + 597 x(79)#79
     + 605 x(80)#80 + 215 x(81)#81 + 363 x(82)#82 + 380 x(83)#83 + 850 x(84)#84
     + 753 x(85)#85 + 474 x(86)#86 + 137 x(87)#87 + 303 x(88)#88 + 205 x(89)#89
     + 851 x(90)#90 + 768 x(91)#91 + 451 x(92)#92 + 881 x(93)#93 + 481 x(94)#94
     + 65 x(95)#95 + 442 x(96)#96 + 697 x(97)#97 + 837 x(98)#98 + 12 x(99)#99
     + 139 x(100)#100 + 443 x(101)#101 + 377 x(102)#102 + 28 x(103)#103
     + 533 x(104)#104 + 380 x(105)#105 + 203 x(106)#106 + 397 x(107)#107
     + 197 x(108)#108 + 808 x(109)#109 + 302 x(110)#110 + 797 x(111)#111
     + 617 x(112)#112 + 228 x(113)#113 + 248 x(114)#114 + 604 x(115)#115
     + 697 x(116)#116 + 812 x(117)#117 + 414 x(118)#118 + 627 x(119)#119
     + 467 x(120)#120 + 187 x(121)#121 + 160 x(122)#122 + 942 x(123)#123
     + 619 x(124)#124 + 325 x(125)#125 + 675 x(126)#126 + 593 x(127)#127
     + 324 x(128)#128 + 550 x(129)#129 + 570 x(130)#130 + 787 x(131)#131
     + 954 x(132)#132 + 49 x(133)#133 + 11 x(134)#134 + 989 x(135)#135
     + 211 x(136)#136 + 544 x(137)#137 + 235 x(138)#138 + 857 x(139)#139
     + 704 x(140)#140 + 655 x(141)#141 + 513 x(142)#142 + 243 x(143)#143
     + 847 x(144)#144 + 47 x(145)#145 + 395 x(146)#146 + 848 x(147)#147
     + 566 x(148)#148 + 619 x(149)#149 + 332 x(150)#150 + 656 x(151)#151
     + 328 x(152)#152 + 820 x(153)#153 + 872 x(154)#154 + 822 x(155)#155
     + 199 x(156)#156 + 173 x(157)#157 + 380 x(158)#158 + 130 x(159)#159
     + 989 x(160)#160 + 502 x(161)#161 + 160 x(162)#162 + 490 x(163)#163
     + 250 x(164)#164 + 553 x(165)#165 + 490 x(166)#166 + 405 x(167)#167
     + 588 x(168)#168 + 109 x(169)#169 + 802 x(170)#170 + 35 x(171)#171
     + 899 x(172)#172 + 382 x(173)#173 + 471 x(174)#174 + 669 x(175)#175
     + 288 x(176)#176 + 377 x(177)#177 + 660 x(178)#178 + 808 x(179)#179
     + 528 x(180)#180 + 264 x(181)#181 + 682 x(182)#182 + 609 x(183)#183
     + 564 x(184)#184 + 834 x(185)#185 + 260 x(186)#186 + 655 x(187)#187
     + 702 x(188)#188 + 512 x(189)#189 + 132 x(190)#190 + 747 x(191)#191
     + 539 x(192)#192 + 648 x(193)#193 + 641 x(194)#194 + 193 x(195)#195
     + 251 x(196)#196 + 545 x(197)#197 + 93 x(198)#198 + 915 x(199)#199
     + 74 x(200)#200 + 115 x(201)#201 + 808 x(202)#202 + 706 x(203)#203
     + 596 x(204)#204 + 428 x(205)#205 + 383 x(206)#206 + 324 x(207)#207
     + 154 x(208)#208 + 241 x(209)#209 + 90 x(210)#210 + 468 x(211)#211
     + 959 x(212)#212 + 307 x(213)#213 + 568 x(214)#214 + 380 x(215)#215
     + 777 x(216)#216 + 509 x(217)#217 + 859 x(218)#218 + 747 x(219)#219
     + 712 x(220)#220 + 63 x(221)#221 + 739 x(222)#222 + 334 x(223)#223
     + 72 x(224)#224 + 404 x(225)#225 + 379 x(226)#226 + 328 x(227)#227
     + 558 x(228)#228 + 252 x(229)#229 + 517 x(230)#230 + 137 x(231)#231
     + 460 x(232)#232 + 617 x(233)#233 + 959 x(234)#234 + 240 x(235)#235
     + 381 x(236)#236 + 329 x(237)#237 + 266 x(238)#238 + 896 x(239)#239
     + 887 x(240)#240 + 912 x(241)#241 + 766 x(242)#242 + 708 x(243)#243
     + 379 x(244)#244 + 475 x(245)#245 + 512 x(246)#246 + 306 x(247)#247
     + 22 x(248)#248 + 444 x(249)#249 <= 31011
Bounds
 0 <= x(0)#0 <= 1
 0 <= x(1)#1 <= 1
 0 <= x(2)#2 <= 1
 0 <= x(3)#3 <= 1
 0 <= x(4)#4 <= 1
 0 <= x(5)#5 <= 1
 0 <= x(6)#6 <= 1
 0 <= x(7)#7 <= 1
 0 <= x(8)#8 <= 1
 0 <= x(9)#9 <= 1
 0 <= x(10)#10 <= 1
 0 <= x(11)#11 <= 1
 0 <= x(12)#12 <= 1
 0 <= x(13)#13 <= 1
 0 <= x(14)#14 <= 1
 0 <= x(15)#15 <= 1
 0 <= x(16)#16 <= 1
 0 <= x(17)#17 <= 1
 0 <= x(18)#18 <= 1
 0 <= x(19)#19 <= 1
 0 <= x(20)#20 <= 1
 0 <= x(21)#21 <= 1
 0 <= x(22)#22 <= 1
 0 <= x(23)#23 <= 1
 0 <= x(24)#24 <= 1
 0 <= x(25)#25 <= 1
 0 <= x(26)#26 <= 1
 0 <= x(27)#27 <= 1
 0 <= x(28)#28 <= 1
 0 <= x(29)#29 <= 1
 0 <= x(30)#30 <= 1
 0 <= x(31)#31 <= 1
 0 <= x(32)#32 <= 1
 0 <= x(33)#33 <= 1
 0 <= x(34)#34 <= 1
 0 <= x(35)#35 <= 1
 0 <= x(36)#36 <= 1
 0 <= x(37)#37 <= 1
 0 <= x(38)#38 <= 1
 0 <= x(39)#39 <= 1
 0 <= x(40)#40 <= 1
 0 <= x(41)#41 <= 1
 0 <= x(42)#42 <= 1
 0 <= x(43)#43 <= 1
 0 <= x(44)#44 <= 1
 0 <= x(45)#45 <= 1
 0 <= x(46)#46 <= 1
 0 <= x(47)#47 <= 1
 0 <= x(48)#48 <= 1
 0 <= x(49)#49 <= 1
 0 <= x(50)#50 <= 1
 0 <= x(51)#51 <= 1
 0 <= x(52)#52 <= 1
 0 <= x(53)#53 <= 1
 0 <= x(54)#54 <= 1
 0 <= x(55)#55 <= 1
 0 <= x(56)#56 <= 1
 0 <= x(57)#57 <= 1
 0 <= x(58)#58 <= 1
 0 <= x(59)#59 <= 1
 0 <= x(60)#60 <= 1
 0 <= x(61)#61 <= 1
 0 <= x(62)#62 <= 1
 0 <= x(63)#63 <= 1
 0 <= x(64)#64 <= 1
 0 <= x(65)#65 <= 1
 0 <= x(66)#66 <= 1
 0 <= x(67)#67 <= 1
 0 <= x(68)#68 <= 1
 0 <= x(69)#69 <= 1
 0 <= x(70)#70 <= 1
 0 <= x(71)#71 <= 1
 0 <= x(72)#72 <= 1
 0 <= x(73)#73 <= 1
 0 <= x(74)#74 <= 1
 0 <= x(75)#75 <= 1
 0 <= x(76)#76 <= 1
 0 <= x(77)#77 <= 1
 0 <= x(78)#78 <= 1
 0 <= x(79)#79 <= 1
 0 <= x(80)#80 <= 1
 0 <= x(81)#81 <= 1
 0 <= x(82)#82 <= 1
 0 <= x(83)#83 <= 1
 0 <= x(84)#84 <= 1
 0 <= x(85)#85 <= 1
 0 <= x(86)#86 <= 1
 0 <= x(87)#87 <= 1
 0 <= x(88)#88 <= 1
 0 <= x(89)#89 <= 1
 0 <= x(90)#90 <= 1
 0 <= x(91)#91 <= 1
 0 <= x(92)#92 <= 1
 0 <= x(93)#93 <= 1
 0 <= x(94)#94 <= 1
 0 <= x(95)#95 <= 1
 0 <= x(96)#96 <= 1
 0 <= x(97)#97 <= 1
 0 <= x(98)#98 <= 1
 0 <= x(99)#99 <= 1
 0 <= x(100)#100 <= 1
 0 <= x(101)#101 <= 1
 0 <= x(102)#102 <= 1
 0 <= x(103)#103 <= 1
 0 <= x(104)#104 <= 1
 0 <= x(105)#105 <= 1
 0 <= x(106)#106 <= 1
 0 <= x(107)#107 <= 1
 0 <= x(108)#108 <= 1
 0 <= x(109)#109 <= 1
 0 <= x(110)#110 <= 1
 0 <= x(111)#111 <= 1
 0 <= x(112)#112 <= 1
 0 <= x(113)#113 <= 1
 0 <= x(114)#114 <= 1
 0 <= x(115)#115 <= 1
 0 <= x(116)#116 <= 1
 0 <= x(117)#117 <= 1
 0 <= x(118)#118 <= 1
 0 <= x(119)#119 <= 1
 0 <= x(120)#120 <= 1
 0 <= x(121)#121 <= 1
 0 <= x(122)#122 <= 1
 0 <= x(123)#123 <= 1
 0 <= x(124)#124 <= 1
 0 <= x(125)#125 <= 1
 0 <= x(126)#126 <= 1
 0 <= x(127)#127 <= 1
 0 <= x(128)#128 <= 1
 0 <= x(129)#129 <= 1
 0 <= x(130)#130 <= 1
 0 <= x(131)#131 <= 1
 0 <= x(132)#132 <= 1
 0 <= x(133)#133 <= 1
 0 <= x(134)#134 <= 1
 0 <= x(135)#135 <= 1
 0 <= x(136)#136 <= 1
 0 <= x(137)#137 <= 1
 0 <= x(138)#138 <= 1
 0 <= x(139)#139 <= 1
 0 <= x(140)#140 <= 1
 0 <= x(141)#141 <= 1
 0 <= x(142)#142 <= 1
 0 <= x(143)#143 <= 1
 0 <= x(144)#144 <= 1
 0 <= x(145)#145 <= 1
 0 <= x(146)#146 <= 1
 0 <= x(147)#147 <= 1
 0 <= x(148)#148 <= 1
 0 <= x(149)#149 <= 1
 0 <= x(150)#150 <= 1
 0 <= x(151)#151 <= 1
 0 <= x(152)#152 <= 1
 0 <= x(153)#153 <= 1
 0 <= x(154)#154 <= 1
 0 <= x(155)#155 <= 1
 0 <= x(156)#156 <= 1
 0 <= x(157)#157 <= 1
 0 <= x(158)#158 <= 1
 0 <= x(159)#159 <= 1
 0 <= x(160)#160 <= 1
 0 <= x(161)#161 <= 1
 0 <= x(162)#162 <= 1
 0 <= x(163)#163 <= 1
 0 <= x(164)#164 <= 1
 0 <= x(165)#165 <= 1
 0 <= x(166)#166 <= 1
 0 <= x(167)#167 <= 1
 0 <= x(168)#168 <= 1
 0 <= x(169)#169 <= 1
 0 <= x(170)#170 <= 1
 0 <= x(171)#171 <= 1
 0 <= x(172)#172 <= 1
 0 <= x(173)#173 <= 1
 0 <= x(174)#174 <= 1
 0 <= x(175)#175 <= 1
 0 <= x(176)#176 <= 1
 0 <= x(177)#177 <= 1
 0 <= x(178)#178 <= 1
 0 <= x(179)#179 <= 1
 0 <= x(180)#180 <= 1
 0 <= x(181)#181 <= 1
 0 <= x(182)#182 <= 1
 0 <= x(183)#183 <= 1
 0 <= x(184)#184 <= 1
 0 <= x(185)#185 <= 1
 0 <= x(186)#186 <= 1
 0 <= x(187)#187 <= 1
 0 <= x(188)#188 <= 1
 0 <= x(189)#189 <= 1
 0 <= x(190)#190 <= 1
 0 <= x(191)#191 <= 1
 0 <= x(192)#192 <= 1
 0 <= x(193)#193 <= 1
 0 <= x(194)#194 <= 1
 0 <= x(195)#195 <= 1
 0 <= x(196)#196 <= 1
 0 <= x(197)#197 <= 1
 0 <= x(198)#198 <= 1
 0 <= x(199)#199 <= 1
 0 <= x(200)#200 <= 1
 0 <= x(201)#201 <= 1
 0 <= x(202)#202 <= 1
 0 <= x(203)#203 <= 1
 0 <= x(204)#204 <= 1
 0 <= x(205)#205 <= 1
 0 <= x(206)#206 <= 1
 0 <= x(207)#207 <= 1
 0 <= x(208)#208 <= 1
 0 <= x(209)#209 <= 1
 0 <= x(210)#210 <= 1
 0 <= x(211)#211 <= 1
 0 <= x(212)#212 <= 1
 0 <= x(213)#213 <= 1
 0 <= x(214)#214 <= 1
 0 <= x(215)#215 <= 1
 0 <= x(216)#216 <= 1
 0 <= x(217)#217 <= 1
 0 <= x(218)#218 <= 1
 0 <= x(219)#219 <= 1
 0 <= x(220)#220 <= 1
 0 <= x(221)#221 <= 1
 0 <= x(222)#222 <= 1
 0 <= x(223)#223 <= 1
 0 <= x(224)#224 <= 1
 0 <= x(225)#225 <= 1
 0 <= x(226)#226 <= 1
 0 <= x(227)#227 <= 1
 0 <= x(228)#228 <= 1
 0 <= x(229)#229 <= 1
 0 <= x(230)#230 <= 1
 0 <= x(231)#231 <= 1
 0 <= x(232)#232 <= 1
 0 <= x(233)#233 <= 1
 0 <= x(234)#234 <= 1
 0 <= x(235)#235 <= 1
 0 <= x(236)#236 <= 1
 0 <= x(237)#237 <= 1
 0 <= x(238)#238 <= 1
 0 <= x(239)#239 <= 1
 0 <= x(240)#240 <= 1
 0 <= x(241)#241 <= 1
 0 <= x(242)#242 <= 1
 0 <= x(243)#243 <= 1
 0 <= x(244)#244 <= 1
 0 <= x(245)#245 <= 1
 0 <= x(246)#246 <= 1
 0 <= x(247)#247 <= 1
 0 <= x(248)#248 <= 1
 0 <= x(249)#249 <= 1
Generals
 x(0)#0  x(1)#1  x(2)#2  x(3)#3  x(4)#4  x(5)#5  x(6)#6  x(7)#7  x(8)#8 
 x(9)#9  x(10)#10  x(11)#11  x(12)#12  x(13)#13  x(14)#14  x(15)#15  x(16)#16 
 x(17)#17  x(18)#18  x(19)#19  x(20)#20  x(21)#21  x(22)#22  x(23)#23 
 x(24)#24  x(25)#25  x(26)#26  x(27)#27  x(28)#28  x(29)#29  x(30)#30 
 x(31)#31  x(32)#32  x(33)#33  x(34)#34  x(35)#35  x(36)#36  x(37)#37 
 x(38)#38  x(39)#39  x(40)#40  x(41)#41  x(42)#42  x(43)#43  x(44)#44 
 x(45)#45  x(46)#46  x(47)#47  x(48)#48  x(49)#49  x(50)#50  x(51)#51 
 x(52)#52  x(53)#53  x(54)#54  x(55)#55  x(56)#56  x(57)#57  x(58)#58 
 x(59)#59  x(60)#60  x(61)#61  x(62)#62  x(63)#63  x(64)#64  x(65)#65 
 x(66)#66  x(67)#67  x(68)#68  x(69)#69  x(70)#70  x(71)#71  x(72)#72 
 x(73)#73  x(74)#74  x(75)#75  x(76)#76  x(77)#77  x(78)#78  x(79)#79 
 x(80)#80  x(81)#81  x(82)#82  x(83)#83  x(84)#84  x(85)#85  x(86)#86 
 x(87)#87  x(88)#88  x(89)#89  x(90)#90  x(91)#91  x(92)#92  x(93)#93 
 x(94)#94  x(95)#95  x(96)#96  x(97)#97  x(98)#98  x(99)#99  x(100)#100 
 x(101)#101  x(102)#102  x(103)#103  x(104)#104  x(105)#105  x(106)#106 
 x(107)#107  x(108)#108  x(109)#109  x(110)#110  x(111)#111  x(112)#112 
 x(113)#113  x(114)#114  x(115)#115  x(116)#116  x(117)#117  x(118)#118 
 x(119)#119  x(120)#120  x(121)#121  x(122)#122  x(123)#123  x(124)#124 
 x(125)#125  x(126)#126  x(127)#127  x(128)#128  x(129)#129  x(130)#130 
 x(131)#131  x(132)#132  x(133)#133  x(134)#134  x(135)#135  x(136)#136 
 x(137)#137  x(138)#138  x(139)#139  x(140)#140  x(141)#141  x(142)#142 
 x(143)#143  x(144)#144  x(145)#145  x(146)#146  x(147)#147  x(148)#148 
 x(149)#149  x(150)#150  x(151)#151  x(152)#152  x(153)#153  x(154)#154 
 x(155)#155  x(156)#156  x(157)#157  x(158)#158  x(159)#159  x(160)#160 
 x(161)#161  x(162)#162  x(163)#163  x(164)#164  x(165)#165  x(166)#166 
 x(167)#167  x(168)#168  x(169)#169  x(170)#170  x(171)#171  x(172)#172 
 x(173)#173  x(174)#174  x(175)#175  x(176)#176  x(177)#177  x(178)#178 
 x(179)#179  x(180)#180  x(181)#181  x(182)#182  x(183)#183  x(184)#184 
 x(185)#185  x(186)#186  x(187)#187  x(188)#188  x(189)#189  x(190)#190 
 x(191)#191  x(192)#192  x(193)#193  x(194)#194  x(195)#195  x(196)#196 
 x(197)#197  x(198)#198  x(199)#199  x(200)#200  x(201)#201  x(202)#202 
 x(203)#203  x(204)#204  x(205)#205  x(206)#206  x(207)#207  x(208)#208 
 x(209)#209  x(210)#210  x(211)#211  x(212)#212  x(213)#213  x(214)#214 
 x(215)#215  x(216)#216  x(217)#217  x(218)#218  x(219)#219  x(220)#220 
 x(221)#221  x(222)#222  x(223)#223  x(224)#224  x(225)#225  x(226)#226 
 x(227)#227  x(228)#228  x(229)#229  x(230)#230  x(231)#231  x(232)#232 
 x(233)#233  x(234)#234  x(235)#235  x(236)#236  x(237)#237  x(238)#238 
 x(239)#239  x(240)#240  x(241)#241  x(242)#242  x(243)#243  x(244)#244 
 x(245)#245  x(246)#246  x(247)#247  x(248)#248  x(249)#249 
End
